NAME : morphed22-2-16
COMMENT : Generated using the function morphInstances from the R-package netgen (Bossek,2015) - Number of clusters: 2 Alpha: 0.5
TYPE : TSP
DIMENSION : 22
EDGE_WEIGHT_TYPE : EUC_2D
NODE_COORD_SECTION
1 75.9159013528 67.2458941638
2 25.3099727974 32.2207858291
3 36.4787156002 17.3936557666
4 22.7379499063 38.0636074853
5 87.0436386714 94.9381435039
6 51.7581303124 98.2503009066
7 11.6879782604 42.6667968582
8 89.1551454223 62.6867976846
9 63.5710370614 2.5889044947
10 49.7033480811 91.9862962804
11 58.2705515018 78.9619522362
12 77.8495088673 91.246465245
13 17.6221315083 41.521160695
14 80.6078054771 64.6017543656
15 47.4963687572 28.5718893573
16 59.4690350501 93.7002256559
17 91.4442294909 88.6414210102
18 53.9491634524 24.8450673066
19 60.8204119516 3.4761377757
20 12.1039156611 22.2174939197
21 97.8730174853 61.2100528389
22 54.6542691401 3.6045067812
EOF
